
Gurobi 9.5.1 (win64, gurobi_cl) logging started Wed Jan 18 11:51:28 2023

Set parameter Username
Set parameter TimeLimit to value 3600
Set parameter LogFile to value "gurobi.log"
Academic license - for non-commercial use only - expires 2023-08-27
Using license file C:\Users\luhsa\gurobi.lic

Gurobi Optimizer version 9.5.1 build v9.5.1rc2 (win64)
Copyright (c) 2022, Gurobi Optimization, LLC

Read LP format model from file MPC-ARCP-pulp.lp
Reading time = 0.02 seconds
OBJ: 2017 rows, 774 columns, 10026 nonzeros
Thread count: 6 physical cores, 12 logical processors, using up to 12 threads
Optimize a model with 2017 rows, 774 columns and 10026 nonzeros
Model fingerprint: 0xf4854763
Variable types: 318 continuous, 456 integer (330 binary)
Coefficient statistics:
  Matrix range     [4e-01, 5e+02]
  Objective range  [8e+00, 8e+00]
  Bounds range     [1e+00, 1e+00]
  RHS range        [1e+00, 1e+03]
Found heuristic solution: objective 15.0000000
Presolve removed 740 rows and 174 columns
Presolve time: 0.06s
Presolved: 1277 rows, 600 columns, 7596 nonzeros
Variable types: 231 continuous, 369 integer (303 binary)

Root relaxation: objective 4.500000e+01, 225 iterations, 0.01 seconds (0.00 work units)

    Nodes    |    Current Node    |     Objective Bounds      |     Work
 Expl Unexpl |  Obj  Depth IntInf | Incumbent    BestBd   Gap | It/Node Time

H    0     0                      45.0000000   45.00000  0.00%     -    0s
     0     0   45.00000    0   19   45.00000   45.00000  0.00%     -    0s

Explored 1 nodes (907 simplex iterations) in 0.09 seconds (0.09 work units)
Thread count was 12 (of 12 available processors)

Solution count 2: 45 15 

Optimal solution found (tolerance 1.00e-04)
Best objective 4.500000000000e+01, best bound 4.500000000000e+01, gap 0.0000%

Wrote result file 'MPC-ARCP-pulp.sol'

